5901757.0
1289
0 1 4 7 8 9 10 11 12 14 15 16 18 19 23 24 27 28 29 31 33 36 37 39 41 44 45 49 50 52 54 55 57 58 59 60 61 62 65 72 73 77 78 80 82 84 86 87 91 93 95 96 99 105 106 107 111 115 116 118 124 126 132 134 135 136 137 144 145 146 148 150 151 153 155 156 157 161 162 163 164 165 172 173 174 175 176 177 180 182 184 185 186 189 192 193 197 198 